<instance format="XCSP3" type="CSP">
  <variables>
    <var id="x0"> 0 2 8 11 </var>
    <var id="x1"> 0 4 5 8 10 </var>
    <var id="x2"> 4 5 11 </var>
    <var id="x3"> 5 8 10 </var>
    <var id="x4"> 5 10 11 </var>
    <var id="x5"> 0 2 8 </var>
    <var id="x6"> 4 5 8 </var>
    <var id="x7"> 0 4 6 10 </var>
    <var id="x8"> 0 4 6 8 10 12 </var>
    <var id="x9"> 4 8 10 13 </var>
    <var id="x10"> 0 4 8 12 </var>
    <var id="x11"> 0 6 8 12 </var>
    <var id="x12"> 0 4 10 13 </var>
    <var id="x13"> 0 4 6 8 12 13 </var>
    <var id="x14"> 9 10 13 </var>
    <var id="x15"> 0 4 10 </var>
    <var id="x16"> 4 5 13 </var>
    <var id="x17"> 5 9 10 13 </var>
    <var id="x18"> 0 7 9 </var>
    <var id="x19"> 0 4 5 10 13 </var>
    <var id="x20"> 5 7 9 10 </var>
    <var id="x21"> 0 2 10 11 </var>
    <var id="x22"> 0 2 8 11 12 </var>
    <var id="x23"> 2 8 10 </var>
    <var id="x24"> 0 2 8 9 12 </var>
    <var id="x25"> 8 9 </var>
    <var id="x26"> 9..11 </var>
    <var id="x27"> 0 9 10 </var>
    <var id="x28"> 1 10 13 </var>
    <var id="x29"> 1 5 10 12 13 </var>
    <var as="x29" id="x30"/>
    <var id="x31"> 1 3 5 6 </var>
    <var id="x32"> 5 10 13 </var>
    <var id="x33"> 3 10 13 </var>
    <var id="x34"> 3 6 12 13 </var>
    <var id="x35"> 1 6 8 11 12 </var>
    <var id="x36"> 1 6 8 12 </var>
    <var id="x37"> 1 8 13 </var>
    <var id="x38"> 1 8 12 13 </var>
    <var id="x39"> 8 11 12 </var>
    <var id="x40"> 8 13 </var>
    <var id="x41"> 13 14 </var>
    <var id="x42"> 9 12 14 </var>
    <var id="x43"> 0..2 4 </var>
    <var id="x44"> 0..2 12 </var>
    <var id="x45"> 1 4 </var>
    <var id="x46"> 1 12 14 </var>
    <var id="x47"> 0 2 9 12 </var>
    <var id="x48"> 0 2 4 </var>
    <var id="x49"> 1 6 10 11 </var>
    <var id="x50"> 1 6 10 12 </var>
    <var id="x51"> 1 6 11 13 </var>
    <var id="x52"> 7 11 12 </var>
    <var id="x53"> 1 10..13 </var>
    <var id="x54"> 1 6 9 </var>
    <var id="x55"> 6 7 9..11 </var>
    <var id="x56"> 6 12 13 </var>
    <var id="x57"> 0 1 10 </var>
    <var id="x58"> 0 1 8 </var>
    <var id="x59"> 0 1 5 8 10 </var>
    <var id="x60"> 0 5 7 8 </var>
    <var id="x61"> 5 7 9 10 </var>
    <var id="x62"> 0 9 10 </var>
    <var id="x63"> 0 8 </var>
    <var id="x64"> 4 6 11 </var>
    <var id="x65"> 4..6 12 </var>
    <var id="x66"> 3..6 11 13 </var>
    <var id="x67"> 5 11..13 </var>
    <var id="x68"> 6 12 </var>
    <var id="x69"> 3..6 </var>
    <var id="x70"> 5 6 11 </var>
    <var id="x71"> 6 11 13 </var>
    <var id="x72"> 4 6 11 13 </var>
    <var id="x73"> 8 13 </var>
    <var id="x74"> 11 13 </var>
    <var id="x75"> 0 2 6 8 </var>
    <var id="x76"> 4 6 8 </var>
    <var id="x77"> 0 2 4 8 13 </var>
    <var id="x78"> 6 9 </var>
    <var id="x79"> 1 6 8 </var>
    <var id="x80"> 1 4 7 8 </var>
    <var id="x81"> 4 5 7 8 </var>
    <var id="x82"> 4 5 8 </var>
    <var id="x83"> 5..7 9 </var>
    <var id="x84"> 4 6 8 </var>
    <var id="x85"> 6 11 12 14 </var>
    <var id="x86"> 6 8 11 12 </var>
    <var id="x87"> 4..6 8 12 </var>
    <var id="x88"> 5 8 12 </var>
    <var id="x89"> 4 5 8 11 12 </var>
    <var id="x90"> 5 11 12 14 </var>
    <var id="x91"> 4 6 8 12 </var>
    <var id="x92"> 10 13 14 </var>
    <var id="x93"> 1 4 8 10 13 </var>
    <var id="x94"> 1 8 10 13 </var>
    <var id="x95"> 4 8 </var>
    <var id="x96"> 10 14 </var>
    <var id="x97"> 3 4 10 13 14 </var>
    <var id="x98"> 3 4 8 13 </var>
    <var id="x99"> 6 10 </var>
    <var id="x100"> 0 1 5 6 10 </var>
    <var id="x101"> 1 2 10 </var>
    <var id="x102"> 1 3 5 6 </var>
    <var id="x103"> 1 3 5 6 </var>
    <var id="x104"> 0 2 5 10 </var>
    <var id="x105"> 0 3 10 </var>
  </variables>
  <constraints>
    <group>
      <allDifferent> %... </allDifferent>
      <args> x0 x1 x2 x3 x4 x5 x6 </args>
      <args> x7 x8 x9 x10 x11 x12 x13 </args>
      <args> x14 x15 x16 x17 x18 x19 x20 </args>
      <args> x21 x22 x23 x24 x25 x26 x27 </args>
      <args> x28 x29 x30 x31 x32 x33 x34 </args>
      <args> x35 x36 x37 x38 x39 x40 x41 </args>
      <args> x42 x43 x44 x45 x46 x47 x48 </args>
      <args> x49 x50 x51 x52 x53 x54 x55 x56 </args>
      <args> x57 x58 x59 x60 x61 x62 x63 </args>
      <args> x64 x65 x66 x67 x68 x69 x70 </args>
      <args> x71 x72 x73 x74 x75 x76 x77 </args>
      <args> x78 x79 x80 x81 x82 x83 x84 </args>
      <args> x85 x86 x87 x88 x89 x90 x91 </args>
      <args> x92 x93 x94 x95 x96 x97 x98 </args>
      <args> x99 x100 x101 x102 x103 x104 x105 </args>
      <args> x14 x42 x71 x78 x85 x92 x99 </args>
      <args> x7 x15 x21 x43 x49 x57 x64 </args>
      <args> x0 x22 x35 x44 x58 x79 x86 </args>
      <args> x1 x8 x36 x50 x59 x65 x87 x100 </args>
      <args> x9 x23 x28 x37 x80 x93 x101 </args>
      <args> x2 x16 x45 x51 x66 x72 x102 </args>
      <args> x3 x17 x29 x38 x73 x88 x94 </args>
      <args> x10 x39 x52 x60 x81 x89 x95 </args>
      <args> x4 x30 x46 x53 x67 x74 x90 </args>
      <args> x5 x11 x18 x24 x47 x68 x75 </args>
      <args> x6 x25 x31 x54 x69 x76 x103 </args>
      <args> x19 x32 x40 x48 x77 x82 x104 </args>
      <args> x20 x26 x55 x61 x70 x83 x96 </args>
      <args> x12 x27 x33 x41 x62 x97 x105 </args>
      <args> x13 x34 x56 x63 x84 x91 x98 </args>
    </group>
  </constraints>
</instance>

